(declare-sort $$unsorted 0)
(declare-fun tptp.op ($$unsorted $$unsorted) $$unsorted)
(assert (forall ((X0 $$unsorted) (X1 $$unsorted) (X2 $$unsorted) (X3 $$unsorted) (X4 $$unsorted)) (= X0 (tptp.op (tptp.op (tptp.op (tptp.op X0 X0) X1) X2) X1))))
(assert (not (forall ((X0 $$unsorted) (X1 $$unsorted) (X2 $$unsorted) (X3 $$unsorted) (X4 $$unsorted)) (= X0 (tptp.op (tptp.op (tptp.op (tptp.op X0 X1) X2) X3) X4)))))
(set-info :filename Equation3062_implies_Equation3101)
(check-sat-assuming ( true ))
